p cnf 25 59
a 18 3 0
e 1 2 4 5 6 7 8 9 10 11 12 13 14 15 16 17 19 20 21 22 23 24 25 0
3 1 0
3 2 0
-1 -2 -3 0
6 -4 0
6 5 0
4 -5 -6 0
-3 6 -7 0
3 -6 -7 0
-3 -6 7 0
3 6 7 0
-4 8 0
4 8 0
-11 -9 0
-11 10 0
9 -10 11 0
-12 -11 0
-12 11 0
-8 12 -13 0
8 -12 -13 0
-8 -12 13 0
8 12 13 0
-14 7 0
-14 -13 0
-7 13 14 0
-16 15 0
-16 2 0
-15 -2 16 0
-15 1 -17 0
15 -1 -17 0
-15 -1 17 0
15 1 17 0
-16 17 -18 0
16 -17 -18 0
-16 -17 18 0
16 17 18 0
20 -19 0
20 -5 0
19 5 -20 0
-21 9 0
-21 15 0
-9 -15 21 0
22 21 0
22 11 0
-21 -11 -22 0
23 20 0
23 22 0
-20 -22 -23 0
-24 -18 0
-24 -23 0
18 23 24 0
25 14 0
25 -24 0
-14 24 -25 0
14 -19 -12 -25 10 -13 0
22 -7 2 -3 4 0
-6 -7 -17 -13 -20 14 0
5 -7 8 10 -20 0
-23 10 8 -7 0
25 0
